#************************************************************************************
#*                   Generated by cif2cell 2.0.0 2020-11-06 19:39                   *
#*  T. Bjorkman, Comp. Phys. Commun. 182, 1183-1186 (2011). Please cite generously. *
#*                                                                                  *
#*                                     Co   ()                                      *
#*             Failed to get author information, No journal information             *
#************************************************************************************
&CONTROL 
 calculation = "nscf"
 prefix = "Co"
 outdir = "./outdir"
 pseudo_dir = "."
 tprnfor = .true.
 tstress = .true.
 verbosity = "low"

/

&SYSTEM
  ibrav = 0
  A =    2.48976
  nat = 1
  ntyp = 1
  ecutwfc = 60
  ecutrho = 445
  nspin = 2
  starting_magnetization(1)=1
  occupations = "tetrahedra"
  smearing = "mv"
  degauss = 0.005d0
  
/
&electrons 
	conv_thr = 1d-8
	mixing_beta = 0.7d0
/
CELL_PARAMETERS {alat}
  1.000000000000000   0.000000000000000   0.000000000000000 
  0.500000000000000   0.866025403784439   0.000000000000000 
  0.500000000000000   0.288675134594813   0.816496580927726 
ATOMIC_SPECIES
  Co   58.93300  Co.pbe-spn-kjpaw_psl.0.3.1.UPF
ATOMIC_POSITIONS {crystal}
Co   0.000000000000000   0.000000000000000   0.000000000000000 

K_POINTS {automatic}
 23 23 23 0 0 0 
